NAME: random67
TYPE: TSP
DIMENSION: 67
EDGE_WEIGHT_TYPE: EXPLICIT
EDGE_WEIGHT_FORMAT: FULL_MATRIX
EDGE_WEIGHT_SECTION
0 1230 1230 1230 1230 1230 1230 1230 1230 1230 1230 1230 1230 15 1230 1230 1230 10 1230 1230 1230 1230 1230 1230 1230 1230 1230 11 1230 1230 1230 10 17 1230 1230 1230 1230 1230 1230 1230 1230 1230 1230 1230 1230 1230 1230 1230 1230 1230 1230 1230 1230 1230 1230 1230 1230 1230 1230 1230 1230 1230 1230 1230 1230 1230 19
1230 0 1230 1230 1230 1230 1230 1230 1230 1230 1230 1230 1230 1230 1230 1230 1230 1230 1230 1230 1230 6 1230 1230 1230 1230 1230 1230 10 10 1230 1230 1230 18 1230 1230 1230 1230 1230 1230 1230 1230 1230 1230 1230 1230 1230 11 1230 1230 1230 13 5 1230 1230 1230 1230 1230 1230 1230 1230 1230 1230 1230 1230 1230 1230
1230 1230 0 1230 1230 1230 1230 13 1230 1230 1230 1230 1230 1230 1230 1230 1230 1230 1230 1230 1230 1230 1230 1230 1230 1230 1230 1230 1230 1230 1230 1230 1230 1230 31 1230 15 23 18 1230 1230 1230 1230 1230 1230 1230 1230 1230 1230 1230 1230 1230 1230 1230 1230 1230 1230 1230 1230 1230 20 1230 1230 1230 1230 1230 1230
1230 1230 1230 0 1230 1230 1230 1230 1230 1230 1230 1230 1230 1230 1230 1230 1230 1230 21 1230 1230 1230 1230 9 1230 14 1230 1230 1230 1230 1230 1230 1230 1230 1230 18 1230 1230 1230 1230 1230 1230 1230 1230 1230 1230 1230 1230 1230 1230 1230 1230 1230 1230 1230 19 1230 1230 1230 1230 1230 1230 1230 1230 1230 1230 1230
1230 1230 1230 1230 0 1230 1230 1230 47 1230 1230 1230 1230 1230 1230 1230 1230 1230 1230 1 1230 1230 1230 1230 1230 1230 1230 1230 1230 1230 1230 1230 1230 1230 1230 1230 1230 1230 1230 15 1230 1230 1230 1230 1230 1230 1230 1230 1230 1230 13 1230 1230 1230 1230 1230 1230 1230 1230 1230 1230 1 27 13 1230 9 1230
1230 1230 1230 1230 1230 0 1230 1230 1230 1230 1230 1230 1230 29 13 1230 1230 1230 1230 1230 1230 1230 1230 1230 1230 1230 1230 1230 1230 22 1230 1230 1230 1230 1230 1230 1230 1230 1230 1230 1230 1230 1230 14 1230 1230 1230 1230 1230 1230 1230 21 1230 1230 1230 1230 17 1230 1230 1230 1230 1230 1230 1230 18 1230 1230
1230 1230 1230 1230 1230 1230 0 7 1230 19 1230 1230 2 1230 1230 16 1230 1230 1230 1230 1230 1230 1 1230 1230 1230 1230 1230 1230 1230 1230 1230 1230 1230 1230 1230 1230 1230 1230 1230 1230 1230 15 1230 1230 1230 1230 1230 1230 1230 1230 1230 1230 1230 1230 1230 1230 1230 1230 1230 1230 1230 1230 1230 1230 1230 1230
1230 1230 13 1230 1230 1230 7 0 1230 1230 1230 1230 6 1230 1230 1230 1230 1230 1230 1230 1230 1230 1230 1230 1230 1230 1230 1230 1230 1230 1230 1230 1230 1230 1230 1230 11 1230 11 1230 1230 1230 13 1230 1230 1230 1230 1230 1230 1230 1230 1230 1230 1230 1230 1230 1230 1230 1230 1230 1230 1230 1230 1230 1230 1230 1230
1230 1230 1230 1230 47 1230 1230 1230 0 1230 1230 1230 1230 1230 1230 1230 1230 1230 1230 1230 1230 1230 1230 1230 1230 1230 1230 1230 1230 1230 14 1230 1230 1230 1230 1230 1230 1230 1230 1230 1230 1230 1230 1230 11 5 1230 1230 1230 1230 1230 1230 1230 1230 1230 1230 1230 1230 1230 1230 1230 1230 23 1230 1230 55 1230
1230 1230 1230 1230 1230 1230 19 1230 1230 0 1230 1230 1230 1230 1230 6 1230 1230 1230 1230 1230 1230 1230 1230 1230 1230 6 1230 1230 27 1230 1230 1230 20 1230 1230 1230 1230 1230 1230 1230 1230 18 1230 1230 1230 1230 1230 1230 1230 1230 1230 1230 1230 1230 1230 1230 1230 1230 1230 1230 1230 1230 1230 1230 1230 1230
1230 1230 1230 1230 1230 1230 1230 1230 1230 1230 0 1230 1230 1230 1230 1230 1230 1230 1230 1230 1230 1230 1230 10 1230 1230 1230 1230 1230 1230 1230 1230 1230 1230 1230 1230 1230 1230 1230 1230 1230 1230 1230 1230 1230 1230 1230 1230 2 1230 1230 1230 1230 1230 1230 5 1230 1230 1230 1230 1230 1230 1230 1230 1230 1230 1230
1230 1230 1230 1230 1230 1230 1230 1230 1230 1230 1230 0 1230 24 1230 1230 1230 1230 1230 1230 1230 1230 1230 1230 1230 1230 6 1230 1230 30 1230 1230 1230 1230 1230 1230 1230 1230 1230 1230 1230 1230 17 1230 1230 1230 1230 1230 1230 1230 1230 1230 1230 1230 1230 1230 1230 1230 1230 12 1230 1230 1230 1230 1230 1230 1230
1230 1230 1230 1230 1230 1230 2 6 1230 1230 1230 1230 0 1230 1230 1230 1230 1230 1230 1230 1230 1230 2 1230 1230 1230 1230 1230 1230 1230 1230 1230 1230 1230 1230 1230 1230 1230 10 1230 1230 1230 1230 1230 1230 1230 1230 1230 1230 1230 1230 1230 1230 1230 1230 1230 1230 1230 1230 1230 1230 1230 1230 1230 1230 1230 1230
15 1230 1230 1230 1230 29 1230 1230 1230 1230 1230 24 1230 0 1230 1230 1230 1230 1230 1230 1230 1230 1230 1230 1230 1230 1230 1230 1230 31 1230 15 1230 1230 1230 1230 1230 1230 1230 1230 1230 1230 1230 1230 1230 1230 1230 1230 1230 1230 1230 1230 1230 1230 1230 1230 1230 1230 1230 15 1230 1230 1230 1230 22 1230 24
1230 1230 1230 1230 1230 13 1230 1230 1230 1230 1230 1230 1230 1230 0 1230 1230 1230 1230 1230 23 1230 1230 1230 1230 1230 1230 1230 1230 1230 1230 1230 1230 1230 1230 1230 1230 1230 1230 1230 1230 1230 1230 8 1230 1230 1230 1230 1230 27 1230 1230 1230 1230 1230 1230 18 1230 1230 1230 1230 1230 1230 1230 1230 1230 1230
1230 1230 1230 1230 1230 1230 16 1230 1230 6 1230 1230 1230 1230 1230 0 1230 1230 1230 1230 1230 1230 16 1230 1230 1230 1230 1230 1230 1230 1230 1230 1230 17 1230 1230 1230 1230 1230 1230 1230 1230 1230 1230 27 1230 1230 1230 1230 1230 1230 1230 1230 1230 1230 1230 1230 23 1230 1230 1230 1230 1230 1230 1230 1230 1230
1230 1230 1230 1230 1230 1230 1230 1230 1230 1230 1230 1230 1230 1230 1230 1230 0 1230 1230 1230 17 11 1230 1230 1230 1230 1230 1230 1230 1230 1230 1230 1230 1230 1230 1230 1230 1230 1230 1230 1230 15 1230 1230 1230 1230 1230 4 1230 1230 1230 9 10 1230 21 1230 1230 1230 1230 1230 1230 1230 1230 1230 1230 1230 1230
10 1230 1230 1230 1230 1230 1230 1230 1230 1230 1230 1230 1230 1230 1230 1230 1230 0 1230 1230 1230 1230 1230 41 1230 19 1230 11 1230 1230 1230 1230 10 1230 1230 1230 1230 1230 1230 1230 1230 1230 1230 1230 1230 1230 1230 1230 1230 1230 1230 1230 1230 1230 1230 1230 1230 1230 1230 1230 1230 1230 1230 1230 1230 1230 1230
1230 1230 1230 21 1230 1230 1230 1230 1230 1230 1230 1230 1230 1230 1230 1230 1230 1230 0 1230 1230 1230 1230 1230 24 1230 1230 1230 1230 1230 1230 1230 1230 1230 16 12 1230 1230 1230 1230 1230 1230 27 1230 1230 1230 1230 1230 1230 1230 1230 1230 1230 11 1230 24 1230 1230 1230 24 17 1230 1230 1230 1230 1230 1230
1230 1230 1230 1230 1 1230 1230 1230 1230 1230 1230 1230 1230 1230 1230 1230 1230 1230 1230 0 1230 1230 1230 1230 1230 1230 1230 1230 1230 1230 1230 1230 1230 1230 1230 1230 1230 1230 1230 1230 1230 12 1230 1230 1230 1230 1230 1230 1230 1230 1230 1230 1230 1230 1230 1230 1230 1230 1230 1230 1230 1 1230 1230 1230 8 1230
1230 1230 1230 1230 1230 1230 1230 1230 1230 1230 1230 1230 1230 1230 23 1230 17 1230 1230 1230 0 1230 1230 1230 1230 1230 1230 1230 1230 1230 1230 1230 1230 1230 1230 1230 1230 1230 1230 1230 1230 1230 1230 16 1230 1230 1230 1230 1230 51 1230 17 1230 1230 26 1230 1230 1230 1230 1230 1230 1230 1230 1230 1230 1230 1230
1230 6 1230 1230 1230 1230 1230 1230 1230 1230 1230 1230 1230 1230 1230 1230 11 1230 1230 1230 1230 0 1230 1230 1230 1230 1230 1230 7 1230 1230 1230 1230 1230 1230 1230 1230 1230 1230 1230 1230 15 1230 1230 1230 1230 6 1230 1230 1230 10 1230 2 1230 1230 1230 1230 1230 1230 1230 1230 1230 1230 1230 1230 1230 1230
1230 1230 1230 1230 1230 1230 1 1230 1230 1230 1230 1230 2 1230 1230 16 1230 1230 1230 1230 1230 1230 0 1230 1230 1230 1230 1230 1230 1230 16 1230 1230 1230 1230 1230 1230 1230 10 1230 1230 1230 1230 1230 22 1230 1230 1230 1230 1230 1230 1230 1230 1230 1230 1230 1230 1230 1230 1230 1230 1230 1230 1230 1230 1230 1230
1230 1230 1230 9 1230 1230 1230 1230 1230 1230 10 1230 1230 1230 1230 1230 1230 41 1230 1230 1230 1230 1230 0 1230 22 1230 1230 1230 1230 1230 1230 50 1230 1230 1230 1230 1230 1230 1230 1230 1230 1230 1230 1230 1230 1230 1230 11 1230 1230 1230 1230 1230 1230 13 1230 1230 1230 1230 1230 1230 1230 1230 1230 1230 1230
1230 1230 1230 1230 1230 1230 1230 1230 1230 1230 1230 1230 1230 1230 1230 1230 1230 1230 24 1230 1230 1230 1230 1230 0 1230 1230 1230 1230 1230 1230 1230 1230 1230 20 1230 1230 74 1230 1230 1230 1230 1230 1230 1230 1230 1230 1230 7 1230 1230 1230 1230 1230 1230 2 1230 1230 1230 1230 1230 1230 1230 1230 1230 1230 1230
1230 1230 1230 14 1230 1230 1230 1230 1230 1230 1230 1230 1230 1230 1230 1230 1230 19 1230 1230 1230 1230 1230 22 1230 0 1230 10 1230 1230 1230 1230 1230 1230 1230 17 1230 1230 1230 1230 13 1230 1230 1230 1230 1230 1230 1230 1230 1230 1230 1230 1230 1230 1230 1230 1230 1230 1230 1230 1230 1230 1230 1230 1230 1230 1230
1230 1230 1230 1230 1230 1230 1230 1230 1230 6 1230 6 1230 1230 1230 1230 1230 1230 1230 1230 1230 1230 1230 1230 1230 1230 0 1230 1230 28 1230 1230 1230 1230 1230 1230 1230 1230 1230 1230 1230 1230 16 1230 1230 1230 1230 1230 1230 1230 1230 1230 1230 1230 1230 1230 1230 1230 1230 1230 1230 1230 1230 1230 1230 1230 1230
11 1230 1230 1230 1230 1230 1230 1230 1230 1230 1230 1230 1230 1230 1230 1230 1230 11 1230 1230 1230 1230 1230 1230 1230 10 1230 0 1230 1230 1230 9 1230 1230 1230 1230 1230 1230 1230 1230 14 1230 1230 1230 1230 1230 1230 1230 1230 1230 1230 1230 1230 1230 1230 1230 1230 1230 1230 1230 1230 1230 1230 1230 1230 1230 1230
1230 10 1230 1230 1230 1230 1230 1230 1230 1230 1230 1230 1230 1230 1230 1230 1230 1230 1230 1230 1230 7 1230 1230 1230 1230 1230 1230 0 1230 1230 1230 1230 12 1230 1230 1230 1230 1230 7 1230 1230 1230 1230 1230 1230 3 1230 1230 1230 1230 1230 1230 1230 1230 1230 1230 1230 12 1230 1230 1230 1230 1230 1230 1230 1230
1230 10 1230 1230 1230 22 1230 1230 1230 27 1230 30 1230 31 1230 1230 1230 1230 1230 1230 1230 1230 1230 1230 1230 1230 28 1230 1230 0 1230 1230 1230 24 1230 1230 1230 1230 1230 1230 1230 1230 1230 1230 1230 1230 1230 1230 1230 1230 1230 14 1230 1230 1230 1230 1230 1230 1230 1230 1230 1230 1230 1230 1230 1230 1230
1230 1230 1230 1230 1230 1230 1230 1230 14 1230 1230 1230 1230 1230 1230 1230 1230 1230 1230 1230 1230 1230 16 1230 1230 1230 1230 1230 1230 1230 0 1230 1230 1230 1230 1230 1230 21 10 1230 1230 1230 1230 1230 11 13 1230 1230 1230 1230 1230 1230 1230 1230 1230 1230 1230 1230 1230 1230 1230 1230 1230 1230 1230 1230 1230
10 1230 1230 1230 1230 1230 1230 1230 1230 1230 1230 1230 1230 15 1230 1230 1230 1230 1230 1230 1230 1230 1230 1230 1230 1230 1230 9 1230 1230 1230 0 1230 1230 1230 1230 1230 1230 1230 1230 10 1230 1230 1230 1230 1230 1230 1230 1230 1230 1230 1230 1230 1230 1230 1230 1230 1230 1230 17 1230 1230 1230 1230 1230 1230 1230
17 1230 1230 1230 1230 1230 1230 1230 1230 1230 1230 1230 1230 1230 1230 1230 1230 10 1230 1230 1230 1230 1230 50 1230 1230 1230 1230 1230 1230 1230 1230 0 1230 1230 1230 1230 1230 1230 1230 1230 1230 1230 1230 1230 1230 1230 1230 1230 33 1230 1230 1230 1230 1230 1230 1230 1230 1230 1230 1230 1230 1230 1230 1230 1230 16
1230 18 1230 1230 1230 1230 1230 1230 1230 20 1230 1230 1230 1230 1230 17 1230 1230 1230 1230 1230 1230 1230 1230 1230 1230 1230 1230 12 24 1230 1230 1230 0 1230 1230 1230 1230 1230 1230 1230 1230 1230 1230 1230 1230 1230 1230 1230 1230 1230 1230 1230 1230 1230 1230 1230 13 7 1230 1230 1230 1230 1230 1230 1230 1230
1230 1230 31 1230 1230 1230 1230 1230 1230 1230 1230 1230 1230 1230 1230 1230 1230 1230 16 1230 1230 1230 1230 1230 20 1230 1230 1230 1230 1230 1230 1230 1230 1230 0 1230 1230 53 1230 1230 1230 1230 1230 1230 1230 1230 1230 1230 1230 1230 1230 1230 1230 7 1230 1230 1230 1230 1230 1230 12 1230 1230 1230 1230 1230 1230
1230 1230 1230 18 1230 1230 1230 1230 1230 1230 1230 1230 1230 1230 1230 1230 1230 1230 12 1230 1230 1230 1230 1230 1230 17 1230 1230 1230 1230 1230 1230 1230 1230 1230 0 1230 1230 1230 1230 7 1230 1230 1230 1230 1230 1230 1230 1230 1230 1230 1230 1230 1230 1230 1230 1230 1230 1230 16 1230 1230 1230 1230 1230 1230 1230
1230 1230 15 1230 1230 1230 1230 11 1230 1230 1230 1230 1230 1230 1230 1230 1230 1230 1230 1230 1230 1230 1230 1230 1230 1230 1230 1230 1230 1230 1230 1230 1230 1230 1230 1230 0 1230 1230 1230 1230 1230 5 1230 1230 1230 1230 1230 1230 1230 1230 1230 1230 1230 1230 1230 1230 1230 1230 1230 16 1230 1230 1230 1230 1230 1230
1230 1230 23 1230 1230 1230 1230 1230 1230 1230 1230 1230 1230 1230 1230 1230 1230 1230 1230 1230 1230 1230 1230 1230 74 1230 1230 1230 1230 1230 21 1230 1230 1230 53 1230 1230 0 18 1230 1230 1230 1230 1230 1230 24 1230 1230 1230 1230 1230 1230 1230 1230 1230 1230 1230 1230 1230 1230 1230 1230 1230 1230 1230 1230 1230
1230 1230 18 1230 1230 1230 1230 11 1230 1230 1230 1230 10 1230 1230 1230 1230 1230 1230 1230 1230 1230 10 1230 1230 1230 1230 1230 1230 1230 10 1230 1230 1230 1230 1230 1230 18 0 1230 1230 1230 1230 1230 1230 1230 1230 1230 1230 1230 1230 1230 1230 1230 1230 1230 1230 1230 1230 1230 1230 1230 1230 1230 1230 1230 1230
1230 1230 1230 1230 15 1230 1230 1230 1230 1230 1230 1230 1230 1230 1230 1230 1230 1230 1230 1230 1230 1230 1230 1230 1230 1230 1230 1230 7 1230 1230 1230 1230 1230 1230 1230 1230 1230 1230 0 1230 1230 1230 1230 1230 1230 8 1230 1230 1230 1230 1230 1230 1230 1230 1230 1230 17 9 1230 1230 1230 18 4 1230 1230 1230
1230 1230 1230 1230 1230 1230 1230 1230 1230 1230 1230 1230 1230 1230 1230 1230 1230 1230 1230 1230 1230 1230 1230 1230 1230 13 1230 14 1230 1230 1230 10 1230 1230 1230 7 1230 1230 1230 1230 0 1230 1230 1230 1230 1230 1230 1230 1230 1230 1230 1230 1230 1230 1230 1230 1230 1230 1230 16 1230 1230 1230 1230 1230 1230 1230
1230 1230 1230 1230 1230 1230 1230 1230 1230 1230 1230 1230 1230 1230 1230 1230 15 1230 1230 12 1230 15 1230 1230 1230 1230 1230 1230 1230 1230 1230 1230 1230 1230 1230 1230 1230 1230 1230 1230 1230 0 1230 1230 1230 1230 1230 1230 1230 1230 10 1230 1230 1230 13 1230 1230 1230 1230 1230 1230 12 1230 1230 1230 14 1230
1230 1230 1230 1230 1230 1230 15 13 1230 18 1230 17 1230 1230 1230 1230 1230 1230 27 1230 1230 1230 1230 1230 1230 1230 16 1230 1230 1230 1230 1230 1230 1230 1230 1230 5 1230 1230 1230 1230 1230 0 1230 1230 1230 1230 1230 1230 1230 1230 1230 1230 1230 1230 1230 1230 1230 1230 25 20 1230 1230 1230 1230 1230 1230
1230 1230 1230 1230 1230 14 1230 1230 1230 1230 1230 1230 1230 1230 8 1230 1230 1230 1230 1230 16 1230 1230 1230 1230 1230 1230 1230 1230 1230 1230 1230 1230 1230 1230 1230 1230 1230 1230 1230 1230 1230 1230 0 1230 1230 1230 1230 1230 1230 1230 20 1230 1230 1230 1230 1230 1230 1230 1230 1230 1230 1230 1230 1230 1230 1230
1230 1230 1230 1230 1230 1230 1230 1230 11 1230 1230 1230 1230 1230 1230 27 1230 1230 1230 1230 1230 1230 22 1230 1230 1230 1230 1230 1230 1230 11 1230 1230 1230 1230 1230 1230 1230 1230 1230 1230 1230 1230 1230 0 1230 1230 1230 1230 1230 1230 1230 1230 1230 1230 1230 1230 15 1230 1230 1230 1230 13 1230 1230 1230 1230
1230 1230 1230 1230 1230 1230 1230 1230 5 1230 1230 1230 1230 1230 1230 1230 1230 1230 1230 1230 1230 1230 1230 1230 1230 1230 1230 1230 1230 1230 13 1230 1230 1230 1230 1230 1230 24 1230 1230 1230 1230 1230 1230 1230 0 1230 1230 1230 1230 1230 1230 1230 1230 1230 1230 1230 1230 1230 1230 1230 1230 1230 1230 1230 1230 1230
1230 1230 1230 1230 1230 1230 1230 1230 1230 1230 1230 1230 1230 1230 1230 1230 1230 1230 1230 1230 1230 6 1230 1230 1230 1230 1230 1230 3 1230 1230 1230 1230 1230 1230 1230 1230 1230 1230 8 1230 1230 1230 1230 1230 1230 0 1230 1230 1230 7 1230 1230 1230 1230 1230 1230 1230 1230 1230 1230 1230 1230 7 1230 1230 1230
1230 11 1230 1230 1230 1230 1230 1230 1230 1230 1230 1230 1230 1230 1230 1230 4 1230 1230 1230 1230 1230 1230 1230 1230 1230 1230 1230 1230 1230 1230 1230 1230 1230 1230 1230 1230 1230 1230 1230 1230 1230 1230 1230 1230 1230 1230 0 1230 1230 1230 6 9 1230 1230 1230 1230 1230 1230 1230 1230 1230 1230 1230 1230 1230 1230
1230 1230 1230 1230 1230 1230 1230 1230 1230 1230 2 1230 1230 1230 1230 1230 1230 1230 1230 1230 1230 1230 1230 11 7 1230 1230 1230 1230 1230 1230 1230 1230 1230 1230 1230 1230 1230 1230 1230 1230 1230 1230 1230 1230 1230 1230 1230 0 1230 1230 1230 1230 1230 1230 6 1230 1230 1230 1230 1230 1230 1230 1230 1230 1230 1230
1230 1230 1230 1230 1230 1230 1230 1230 1230 1230 1230 1230 1230 1230 27 1230 1230 1230 1230 1230 51 1230 1230 1230 1230 1230 1230 1230 1230 1230 1230 1230 33 1230 1230 1230 1230 1230 1230 1230 1230 1230 1230 1230 1230 1230 1230 1230 1230 0 1230 1230 1230 1230 1230 1230 15 1230 1230 1230 1230 1230 1230 1230 1230 1230 22
1230 1230 1230 1230 13 1230 1230 1230 1230 1230 1230 1230 1230 1230 1230 1230 1230 1230 1230 1230 1230 10 1230 1230 1230 1230 1230 1230 1230 1230 1230 1230 1230 1230 1230 1230 1230 1230 1230 1230 1230 10 1230 1230 1230 1230 7 1230 1230 1230 0 1230 1230 1230 1230 1230 1230 1230 1230 1230 1230 13 1230 4 1230 1230 1230
1230 13 1230 1230 1230 21 1230 1230 1230 1230 1230 1230 1230 1230 1230 1230 9 1230 1230 1230 17 1230 1230 1230 1230 1230 1230 1230 1230 14 1230 1230 1230 1230 1230 1230 1230 1230 1230 1230 1230 1230 1230 20 1230 1230 1230 6 1230 1230 1230 0 1230 1230 1230 1230 1230 1230 1230 1230 1230 1230 1230 1230 1230 1230 1230
1230 5 1230 1230 1230 1230 1230 1230 1230 1230 1230 1230 1230 1230 1230 1230 10 1230 1230 1230 1230 2 1230 1230 1230 1230 1230 1230 1230 1230 1230 1230 1230 1230 1230 1230 1230 1230 1230 1230 1230 1230 1230 1230 1230 1230 1230 9 1230 1230 1230 1230 0 1230 1230 1230 1230 1230 1230 1230 1230 1230 1230 1230 1230 1230 1230
1230 1230 1230 1230 1230 1230 1230 1230 1230 1230 1230 1230 1230 1230 1230 1230 1230 1230 11 1230 1230 1230 1230 1230 1230 1230 1230 1230 1230 1230 1230 1230 1230 1230 7 1230 1230 1230 1230 1230 1230 1230 1230 1230 1230 1230 1230 1230 1230 1230 1230 1230 1230 0 1230 1230 1230 1230 1230 1230 8 1230 1230 1230 1230 1230 1230
1230 1230 1230 1230 1230 1230 1230 1230 1230 1230 1230 1230 1230 1230 1230 1230 21 1230 1230 1230 26 1230 1230 1230 1230 1230 1230 1230 1230 1230 1230 1230 1230 1230 1230 1230 1230 1230 1230 1230 1230 13 1230 1230 1230 1230 1230 1230 1230 1230 1230 1230 1230 1230 0 1230 1230 1230 1230 1230 1230 1230 1230 1230 1230 15 1230
1230 1230 1230 19 1230 1230 1230 1230 1230 1230 5 1230 1230 1230 1230 1230 1230 1230 24 1230 1230 1230 1230 13 2 1230 1230 1230 1230 1230 1230 1230 1230 1230 1230 1230 1230 1230 1230 1230 1230 1230 1230 1230 1230 1230 1230 1230 6 1230 1230 1230 1230 1230 1230 0 1230 1230 1230 1230 1230 1230 1230 1230 1230 1230 1230
1230 1230 1230 1230 1230 17 1230 1230 1230 1230 1230 1230 1230 1230 18 1230 1230 1230 1230 1230 1230 1230 1230 1230 1230 1230 1230 1230 1230 1230 1230 1230 1230 1230 1230 1230 1230 1230 1230 1230 1230 1230 1230 1230 1230 1230 1230 1230 1230 15 1230 1230 1230 1230 1230 1230 0 1230 1230 1230 1230 1230 1230 1230 9 1230 17
1230 1230 1230 1230 1230 1230 1230 1230 1230 1230 1230 1230 1230 1230 1230 23 1230 1230 1230 1230 1230 1230 1230 1230 1230 1230 1230 1230 1230 1230 1230 1230 1230 13 1230 1230 1230 1230 1230 17 1230 1230 1230 1230 15 1230 1230 1230 1230 1230 1230 1230 1230 1230 1230 1230 1230 0 9 1230 1230 1230 2 1230 1230 1230 1230
1230 1230 1230 1230 1230 1230 1230 1230 1230 1230 1230 1230 1230 1230 1230 1230 1230 1230 1230 1230 1230 1230 1230 1230 1230 1230 1230 1230 12 1230 1230 1230 1230 7 1230 1230 1230 1230 1230 9 1230 1230 1230 1230 1230 1230 1230 1230 1230 1230 1230 1230 1230 1230 1230 1230 1230 9 0 1230 1230 1230 1230 1230 1230 1230 1230
1230 1230 1230 1230 1230 1230 1230 1230 1230 1230 1230 12 1230 15 1230 1230 1230 1230 24 1230 1230 1230 1230 1230 1230 1230 1230 1230 1230 1230 1230 17 1230 1230 1230 16 1230 1230 1230 1230 16 1230 25 1230 1230 1230 1230 1230 1230 1230 1230 1230 1230 1230 1230 1230 1230 1230 1230 0 1230 1230 1230 1230 1230 1230 1230
1230 1230 20 1230 1230 1230 1230 1230 1230 1230 1230 1230 1230 1230 1230 1230 1230 1230 17 1230 1230 1230 1230 1230 1230 1230 1230 1230 1230 1230 1230 1230 1230 1230 12 1230 16 1230 1230 1230 1230 1230 20 1230 1230 1230 1230 1230 1230 1230 1230 1230 1230 8 1230 1230 1230 1230 1230 1230 0 1230 1230 1230 1230 1230 1230
1230 1230 1230 1230 1 1230 1230 1230 1230 1230 1230 1230 1230 1230 1230 1230 1230 1230 1230 1 1230 1230 1230 1230 1230 1230 1230 1230 1230 1230 1230 1230 1230 1230 1230 1230 1230 1230 1230 1230 1230 12 1230 1230 1230 1230 1230 1230 1230 1230 13 1230 1230 1230 1230 1230 1230 1230 1230 1230 1230 0 1230 1230 1230 1230 1230
1230 1230 1230 1230 27 1230 1230 1230 23 1230 1230 1230 1230 1230 1230 1230 1230 1230 1230 1230 1230 1230 1230 1230 1230 1230 1230 1230 1230 1230 1230 1230 1230 1230 1230 1230 1230 1230 1230 18 1230 1230 1230 1230 13 1230 1230 1230 1230 1230 1230 1230 1230 1230 1230 1230 1230 2 1230 1230 1230 1230 0 1230 1230 1230 1230
1230 1230 1230 1230 13 1230 1230 1230 1230 1230 1230 1230 1230 1230 1230 1230 1230 1230 1230 1230 1230 1230 1230 1230 1230 1230 1230 1230 1230 1230 1230 1230 1230 1230 1230 1230 1230 1230 1230 4 1230 1230 1230 1230 1230 1230 7 1230 1230 1230 4 1230 1230 1230 1230 1230 1230 1230 1230 1230 1230 1230 1230 0 1230 1230 1230
1230 1230 1230 1230 1230 18 1230 1230 1230 1230 1230 1230 1230 22 1230 1230 1230 1230 1230 1230 1230 1230 1230 1230 1230 1230 1230 1230 1230 1230 1230 1230 1230 1230 1230 1230 1230 1230 1230 1230 1230 1230 1230 1230 1230 1230 1230 1230 1230 1230 1230 1230 1230 1230 1230 1230 9 1230 1230 1230 1230 1230 1230 1230 0 1230 11
1230 1230 1230 1230 9 1230 1230 1230 55 1230 1230 1230 1230 1230 1230 1230 1230 1230 1230 8 1230 1230 1230 1230 1230 1230 1230 1230 1230 1230 1230 1230 1230 1230 1230 1230 1230 1230 1230 1230 1230 14 1230 1230 1230 1230 1230 1230 1230 1230 1230 1230 1230 1230 15 1230 1230 1230 1230 1230 1230 1230 1230 1230 1230 0 1230
19 1230 1230 1230 1230 1230 1230 1230 1230 1230 1230 1230 1230 24 1230 1230 1230 1230 1230 1230 1230 1230 1230 1230 1230 1230 1230 1230 1230 1230 1230 1230 16 1230 1230 1230 1230 1230 1230 1230 1230 1230 1230 1230 1230 1230 1230 1230 1230 22 1230 1230 1230 1230 1230 1230 17 1230 1230 1230 1230 1230 1230 1230 11 1230 0
EOF
